(set-logic AUFNIRA)
(set-info :source |
NASA benchmarks from "Using Automated Theorem Provers to Certify Auto-generated
Aerospace Software", IJCAR 2004.  Translated from TPTP format by Yeting Ge and
Clark Barrett

|)
(set-info :smt-lib-version 2.0)
(set-info :category "industrial")
(set-info :status unknown)
(declare-fun def () Real)
(declare-fun h_ds1_filter () (Array Int (Array Int Real)))
(declare-fun id_ds1_filter () (Array Int (Array Int Real)))
(declare-fun phi_ds1_filter () (Array Int (Array Int Real)))
(declare-fun pminus_ds1_filter () (Array Int (Array Int Real)))
(declare-fun pv5 () Int)
(declare-fun q_ds1_filter () (Array Int (Array Int Real)))
(declare-fun r_ds1_filter () (Array Int (Array Int Real)))
(declare-fun u () (Array Int (Array Int Real)))
(declare-fun use () Real)
(declare-fun xhatmin_ds1_filter () (Array Int (Array Int Real)))
(declare-fun uniform_int_rnd (Int Int) Int)
(declare-fun abs_ (Real) Real)
(declare-fun log (Real) Real)
(declare-fun exp (Real) Real)
(declare-fun cos (Real) Real)
(declare-fun sin (Real) Real)
(declare-fun sqrt (Real) Real)
(declare-fun divide (Real Real) Real)
(declare-fun cond (Int Real Real) Real)
(declare-fun tptp_term_equal (Real Real) Int)
(declare-fun tptp_term_equals (Real Real) Int)
(declare-fun tptp_term_and (Real Real) Int)
(declare-fun sum (Int Int Real) Real)
(declare-fun dim (Int Int) Int)
(declare-fun trans ((Array Int (Array Int Real))) (Array Int (Array Int Real)))
(declare-fun inv ((Array Int (Array Int Real))) (Array Int (Array Int Real)))
(declare-fun tptp_mmul ((Array Int (Array Int Real)) (Array Int (Array Int Real))) (Array Int (Array Int Real)))
(declare-fun tptp_madd ((Array Int (Array Int Real)) (Array Int (Array Int Real))) (Array Int (Array Int Real)))
(declare-fun tptp_msub ((Array Int (Array Int Real)) (Array Int (Array Int Real))) (Array Int (Array Int Real)))
(declare-fun tptp_const_array1 (Int Real) (Array Int Real))
(declare-fun tptp_const_array2 (Int Int Real) (Array Int (Array Int Real)))
(assert (forall ((?X_0 Int) (?C_1 Int)) (=> (>= ?X_0 0) (<= (uniform_int_rnd ?C_1 ?X_0) ?X_0))))
(assert (forall ((?X_2 Int) (?C_3 Int)) (=> (>= ?X_2 0) (>= (uniform_int_rnd ?C_3 ?X_2) 0))))
(assert (forall ((?I_4 Int) (?L_5 Int) (?U_6 Int) (?Val_7 Real)) (=> (and (<= ?L_5 ?I_4) (<= ?I_4 ?U_6)) (= (select (tptp_const_array1 (dim ?L_5 ?U_6) ?Val_7) ?I_4) ?Val_7))))
(assert (forall ((?I_8 Int) (?L1_9 Int) (?U1_10 Int) (?J_11 Int) (?L2_12 Int) (?U2_13 Int) (?Val_14 Real)) (=> (and (and (and (<= ?L1_9 ?I_8) (<= ?I_8 ?U1_10)) (<= ?L2_12 ?J_11)) (<= ?J_11 ?U2_13)) (= (select (select (tptp_const_array2 (dim ?L1_9 ?U1_10) (dim ?L2_12 ?U2_13) ?Val_14) ?I_8) ?J_11) ?Val_14))))
(assert (forall ((?I0_15 Int) (?J0_16 Int) (?A_17 (Array Int (Array Int Real))) (?B_18 (Array Int (Array Int Real))) (?N_19 Int)) (let ((?v_0 (tptp_mmul ?A_17 (tptp_mmul ?B_18 (trans ?A_17))))) (=> (and (and (and (and (>= ?I0_15 0) (<= ?I0_15 ?N_19)) (>= ?J0_16 0)) (<= ?J0_16 ?N_19)) (= (select (select ?B_18 ?I0_15) ?J0_16) (select (select ?B_18 ?J0_16) ?I0_15))) (= (select (select ?v_0 ?I0_15) ?J0_16) (select (select ?v_0 ?J0_16) ?I0_15))))))
(assert (forall ((?I0_20 Int) (?J0_21 Int) (?I_22 Int) (?J_23 Int) (?A_24 (Array Int (Array Int Real))) (?B_25 (Array Int (Array Int Real))) (?N_26 Int) (?M_27 Int)) (let ((?v_0 (tptp_mmul ?A_24 (tptp_mmul ?B_25 (trans ?A_24))))) (=> (and (and (and (and (and (and (and (and (>= ?I0_20 0) (<= ?I0_20 ?N_26)) (>= ?J0_21 0)) (<= ?J0_21 ?N_26)) (>= ?I_22 0)) (<= ?I_22 ?M_27)) (>= ?J_23 0)) (<= ?J_23 ?M_27)) (= (select (select ?B_25 ?I_22) ?J_23) (select (select ?B_25 ?J_23) ?I_22))) (= (select (select ?v_0 ?I0_20) ?J0_21) (select (select ?v_0 ?J0_21) ?I0_20))))))
(assert (forall ((?I_28 Int) (?J_29 Int) (?A_30 (Array Int (Array Int Real))) (?B_31 (Array Int (Array Int Real))) (?N_32 Int)) (let ((?v_0 (tptp_madd ?A_30 ?B_31))) (=> (and (and (and (and (and (>= ?I_28 0) (<= ?I_28 ?N_32)) (>= ?J_29 0)) (<= ?J_29 ?N_32)) (= (select (select ?A_30 ?I_28) ?J_29) (select (select ?A_30 ?J_29) ?I_28))) (= (select (select ?B_31 ?I_28) ?J_29) (select (select ?B_31 ?J_29) ?I_28))) (= (select (select ?v_0 ?I_28) ?J_29) (select (select ?v_0 ?J_29) ?I_28))))))
(assert (forall ((?I_33 Int) (?J_34 Int) (?A_35 (Array Int (Array Int Real))) (?B_36 (Array Int (Array Int Real))) (?N_37 Int)) (let ((?v_0 (tptp_msub ?A_35 ?B_36))) (=> (and (and (and (and (and (>= ?I_33 0) (<= ?I_33 ?N_37)) (>= ?J_34 0)) (<= ?J_34 ?N_37)) (= (select (select ?A_35 ?I_33) ?J_34) (select (select ?A_35 ?J_34) ?I_33))) (= (select (select ?B_36 ?I_33) ?J_34) (select (select ?B_36 ?J_34) ?I_33))) (= (select (select ?v_0 ?I_33) ?J_34) (select (select ?v_0 ?J_34) ?I_33))))))
(assert (forall ((?I_38 Int) (?J_39 Int) (?A_40 (Array Int (Array Int Real))) (?N_41 Int)) (let ((?v_0 (trans ?A_40))) (=> (and (and (and (and (>= ?I_38 0) (<= ?I_38 ?N_41)) (>= ?J_39 0)) (<= ?J_39 ?N_41)) (= (select (select ?A_40 ?I_38) ?J_39) (select (select ?A_40 ?J_39) ?I_38))) (= (select (select ?v_0 ?I_38) ?J_39) (select (select ?v_0 ?J_39) ?I_38))))))
(assert (forall ((?I_42 Int) (?J_43 Int) (?A_44 (Array Int (Array Int Real))) (?N_45 Int)) (let ((?v_0 (inv ?A_44))) (=> (and (and (and (and (>= ?I_42 0) (<= ?I_42 ?N_45)) (>= ?J_43 0)) (<= ?J_43 ?N_45)) (= (select (select ?A_44 ?I_42) ?J_43) (select (select ?A_44 ?J_43) ?I_42))) (= (select (select ?v_0 ?I_42) ?J_43) (select (select ?v_0 ?J_43) ?I_42))))))
(assert (forall ((?I0_46 Int) (?J0_47 Int) (?I_48 Int) (?J_49 Int) (?A_50 (Array Int (Array Int Real))) (?B_51 (Array Int (Array Int Real))) (?C_52 (Array Int (Array Int Real))) (?D_53 (Array Int (Array Int Real))) (?E_54 (Array Int (Array Int Real))) (?F_55 (Array Int (Array Int Real))) (?N_56 Int) (?M_57 Int)) (let ((?v_0 (tptp_madd ?A_50 (tptp_mmul ?B_51 (tptp_mmul (tptp_madd (tptp_mmul ?C_52 (tptp_mmul ?D_53 (trans ?C_52))) (tptp_mmul ?E_54 (tptp_mmul ?F_55 (trans ?E_54)))) (trans ?B_51)))))) (=> (and (and (and (and (and (and (and (and (and (and (>= ?I0_46 0) (<= ?I0_46 ?N_56)) (>= ?J0_47 0)) (<= ?J0_47 ?N_56)) (>= ?I_48 0)) (<= ?I_48 ?M_57)) (>= ?J_49 0)) (<= ?J_49 ?M_57)) (= (select (select ?D_53 ?I_48) ?J_49) (select (select ?D_53 ?J_49) ?I_48))) (= (select (select ?A_50 ?I0_46) ?J0_47) (select (select ?A_50 ?J0_47) ?I0_46))) (= (select (select ?F_55 ?I0_46) ?J0_47) (select (select ?F_55 ?J0_47) ?I0_46))) (= (select (select ?v_0 ?I0_46) ?J0_47) (select (select ?v_0 ?J0_47) ?I0_46))))))
(assert (forall ((?Body_58 Real)) (= (sum 0 (- 1) ?Body_58) 0.0)))
(assert (not (= def use)))
(assert (let ((?v_1 (and (>= pv5 0) (<= pv5 (- 999 1)))) (?v_2 (> pv5 0))) (let ((?v_0 (not ?v_2))) (not (=> (and (and (and (and ?v_1 (forall ((?A_59 Int) (?B_60 Int)) (let ((?v_3 (- 6 1))) (=> (and (and (and (>= ?A_59 0) (>= ?B_60 0)) (<= ?A_59 ?v_3)) (<= ?B_60 ?v_3)) (= (select (select q_ds1_filter ?A_59) ?B_60) (select (select q_ds1_filter ?B_60) ?A_59)))))) (forall ((?C_61 Int) (?D_62 Int)) (let ((?v_4 (- 3 1))) (=> (and (and (and (>= ?C_61 0) (>= ?D_62 0)) (<= ?C_61 ?v_4)) (<= ?D_62 ?v_4)) (= (select (select r_ds1_filter ?C_61) ?D_62) (select (select r_ds1_filter ?D_62) ?C_61)))))) (forall ((?E_63 Int) (?F_64 Int)) (let ((?v_5 (- 6 1))) (=> (and (and (and (>= ?E_63 0) (>= ?F_64 0)) (<= ?E_63 ?v_5)) (<= ?F_64 ?v_5)) (= (select (select pminus_ds1_filter ?E_63) ?F_64) (select (select pminus_ds1_filter ?F_64) ?E_63)))))) (forall ((?G_65 Int)) (=> (and (>= ?G_65 0) (<= ?G_65 (- 6 1))) (forall ((?H_66 Int)) (=> (and (>= ?H_66 0) (<= ?H_66 (- 6 1))) (= (select (select id_ds1_filter ?G_65) ?H_66) (select (select id_ds1_filter ?H_66) ?G_65))))))) (and (=> ?v_0 (and (=> ?v_0 (and (and (and (and (and ?v_1 (forall ((?I_67 Int) (?J_68 Int)) (let ((?v_6 (- 6 1))) (=> (and (and (and (>= ?I_67 0) (>= ?J_68 0)) (<= ?I_67 ?v_6)) (<= ?J_68 ?v_6)) (= (select (select q_ds1_filter ?I_67) ?J_68) (select (select q_ds1_filter ?J_68) ?I_67)))))) (forall ((?K_69 Int) (?L_70 Int)) (let ((?v_7 (- 3 1))) (=> (and (and (and (>= ?K_69 0) (>= ?L_70 0)) (<= ?K_69 ?v_7)) (<= ?L_70 ?v_7)) (= (select (select r_ds1_filter ?K_69) ?L_70) (select (select r_ds1_filter ?L_70) ?K_69)))))) (forall ((?M_71 Int) (?N_72 Int)) (let ((?v_8 (- 6 1)) (?v_9 (trans h_ds1_filter))) (let ((?v_10 (tptp_mmul pminus_ds1_filter (tptp_mmul ?v_9 (inv (tptp_madd r_ds1_filter (tptp_mmul h_ds1_filter (tptp_mmul pminus_ds1_filter ?v_9)))))))) (let ((?v_11 (tptp_msub id_ds1_filter (tptp_mmul ?v_10 h_ds1_filter)))) (let ((?v_12 (tptp_madd q_ds1_filter (tptp_mmul phi_ds1_filter (tptp_mmul (tptp_madd (tptp_mmul ?v_10 (tptp_mmul r_ds1_filter (trans ?v_10))) (tptp_mmul ?v_11 (tptp_mmul pminus_ds1_filter (trans ?v_11)))) (trans phi_ds1_filter)))))) (=> (and (and (and (>= ?M_71 0) (>= ?N_72 0)) (<= ?M_71 ?v_8)) (<= ?N_72 ?v_8)) (= (select (select ?v_12 ?M_71) ?N_72) (select (select ?v_12 ?N_72) ?M_71))))))))) (forall ((?O_73 Int) (?P_74 Int)) (let ((?v_13 (- 6 1)) (?v_14 (trans h_ds1_filter))) (let ((?v_15 (tptp_mmul pminus_ds1_filter (tptp_mmul ?v_14 (inv (tptp_madd r_ds1_filter (tptp_mmul h_ds1_filter (tptp_mmul pminus_ds1_filter ?v_14)))))))) (let ((?v_16 (tptp_msub id_ds1_filter (tptp_mmul ?v_15 h_ds1_filter)))) (let ((?v_17 (tptp_madd q_ds1_filter (tptp_mmul phi_ds1_filter (tptp_mmul (tptp_madd (tptp_mmul ?v_15 (tptp_mmul r_ds1_filter (trans ?v_15))) (tptp_mmul ?v_16 (tptp_mmul pminus_ds1_filter (trans ?v_16)))) (trans phi_ds1_filter)))))) (=> (and (and (and (>= ?O_73 0) (>= ?P_74 0)) (<= ?O_73 ?v_13)) (<= ?P_74 ?v_13)) (= (select (select ?v_17 ?O_73) ?P_74) (select (select ?v_17 ?P_74) ?O_73))))))))) (forall ((?Q_75 Int)) (=> (and (>= ?Q_75 0) (<= ?Q_75 (- 6 1))) (forall ((?R_76 Int)) (=> (and (>= ?R_76 0) (<= ?R_76 (- 6 1))) (= (select (select id_ds1_filter ?Q_75) ?R_76) (select (select id_ds1_filter ?R_76) ?Q_75)))))))) (=> ?v_2 (and (and (and (and (and ?v_1 (forall ((?S_77 Int) (?T_78 Int)) (let ((?v_18 (- 6 1))) (=> (and (and (and (>= ?S_77 0) (>= ?T_78 0)) (<= ?S_77 ?v_18)) (<= ?T_78 ?v_18)) (= (select (select q_ds1_filter ?S_77) ?T_78) (select (select q_ds1_filter ?T_78) ?S_77)))))) (forall ((?U_79 Int) (?V_80 Int)) (let ((?v_19 (- 3 1))) (=> (and (and (and (>= ?U_79 0) (>= ?V_80 0)) (<= ?U_79 ?v_19)) (<= ?V_80 ?v_19)) (= (select (select r_ds1_filter ?U_79) ?V_80) (select (select r_ds1_filter ?V_80) ?U_79)))))) (forall ((?W_81 Int) (?X_82 Int)) (let ((?v_20 (- 6 1)) (?v_21 (trans h_ds1_filter))) (let ((?v_22 (tptp_mmul pminus_ds1_filter (tptp_mmul ?v_21 (inv (tptp_madd r_ds1_filter (tptp_mmul h_ds1_filter (tptp_mmul pminus_ds1_filter ?v_21)))))))) (let ((?v_23 (tptp_msub id_ds1_filter (tptp_mmul ?v_22 h_ds1_filter)))) (let ((?v_24 (tptp_madd q_ds1_filter (tptp_mmul phi_ds1_filter (tptp_mmul (tptp_madd (tptp_mmul ?v_22 (tptp_mmul r_ds1_filter (trans ?v_22))) (tptp_mmul ?v_23 (tptp_mmul pminus_ds1_filter (trans ?v_23)))) (trans phi_ds1_filter)))))) (=> (and (and (and (>= ?W_81 0) (>= ?X_82 0)) (<= ?W_81 ?v_20)) (<= ?X_82 ?v_20)) (= (select (select ?v_24 ?W_81) ?X_82) (select (select ?v_24 ?X_82) ?W_81))))))))) (forall ((?Y_83 Int) (?Z_84 Int)) (let ((?v_25 (- 6 1)) (?v_26 (trans h_ds1_filter))) (let ((?v_27 (tptp_mmul pminus_ds1_filter (tptp_mmul ?v_26 (inv (tptp_madd r_ds1_filter (tptp_mmul h_ds1_filter (tptp_mmul pminus_ds1_filter ?v_26)))))))) (let ((?v_28 (tptp_msub id_ds1_filter (tptp_mmul ?v_27 h_ds1_filter)))) (let ((?v_29 (tptp_madd q_ds1_filter (tptp_mmul phi_ds1_filter (tptp_mmul (tptp_madd (tptp_mmul ?v_27 (tptp_mmul r_ds1_filter (trans ?v_27))) (tptp_mmul ?v_28 (tptp_mmul pminus_ds1_filter (trans ?v_28)))) (trans phi_ds1_filter)))))) (=> (and (and (and (>= ?Y_83 0) (>= ?Z_84 0)) (<= ?Y_83 ?v_25)) (<= ?Z_84 ?v_25)) (= (select (select ?v_29 ?Y_83) ?Z_84) (select (select ?v_29 ?Z_84) ?Y_83))))))))) (forall ((?A1_85 Int)) (=> (and (>= ?A1_85 0) (<= ?A1_85 (- 6 1))) (forall ((?B1_86 Int)) (=> (and (>= ?B1_86 0) (<= ?B1_86 (- 6 1))) (= (select (select id_ds1_filter ?A1_85) ?B1_86) (select (select id_ds1_filter ?B1_86) ?A1_85)))))))))) (=> ?v_2 (and (=> ?v_0 (and (and (and (and (and ?v_1 (forall ((?C1_87 Int) (?D1_88 Int)) (let ((?v_30 (- 6 1))) (=> (and (and (and (>= ?C1_87 0) (>= ?D1_88 0)) (<= ?C1_87 ?v_30)) (<= ?D1_88 ?v_30)) (= (select (select q_ds1_filter ?C1_87) ?D1_88) (select (select q_ds1_filter ?D1_88) ?C1_87)))))) (forall ((?E1_89 Int) (?F1_90 Int)) (let ((?v_31 (- 3 1))) (=> (and (and (and (>= ?E1_89 0) (>= ?F1_90 0)) (<= ?E1_89 ?v_31)) (<= ?F1_90 ?v_31)) (= (select (select r_ds1_filter ?E1_89) ?F1_90) (select (select r_ds1_filter ?F1_90) ?E1_89)))))) (forall ((?G1_91 Int) (?H1_92 Int)) (let ((?v_32 (- 6 1)) (?v_45 (trans h_ds1_filter))) (let ((?v_46 (tptp_mmul pminus_ds1_filter (tptp_mmul ?v_45 (inv (tptp_madd r_ds1_filter (tptp_mmul h_ds1_filter (tptp_mmul pminus_ds1_filter ?v_45)))))))) (let ((?v_47 (tptp_msub id_ds1_filter (tptp_mmul ?v_46 h_ds1_filter))) (?v_44 (select (select xhatmin_ds1_filter 5) 0)) (?v_43 (select (select u 2) pv5)) (?v_41 (select (select u 1) pv5)) (?v_40 (select (select xhatmin_ds1_filter 4) 0)) (?v_37 (select (select xhatmin_ds1_filter 3) 0)) (?v_36 (select (select u 0) pv5)) (?v_34 (divide 1.0 400.0))) (let ((?v_33 (store phi_ds1_filter 2 (store (select phi_ds1_filter 2) 1 (* (- ?v_37 ?v_36) ?v_34))))) (let ((?v_35 (store ?v_33 2 (store (select ?v_33 2) 0 (* (- ?v_41 ?v_40) ?v_34))))) (let ((?v_38 (store ?v_35 1 (store (select ?v_35 1) 2 (* (- ?v_36 ?v_37) ?v_34))))) (let ((?v_39 (store ?v_38 1 (store (select ?v_38 1) 0 (* (- ?v_44 ?v_43) ?v_34))))) (let ((?v_42 (store ?v_39 0 (store (select ?v_39 0) 2 (* (- ?v_40 ?v_41) ?v_34))))) (let ((?v_48 (store ?v_42 0 (store (select ?v_42 0) 1 (* (- ?v_43 ?v_44) ?v_34))))) (let ((?v_49 (tptp_madd q_ds1_filter (tptp_mmul ?v_48 (tptp_mmul (tptp_madd (tptp_mmul ?v_46 (tptp_mmul r_ds1_filter (trans ?v_46))) (tptp_mmul ?v_47 (tptp_mmul pminus_ds1_filter (trans ?v_47)))) (trans ?v_48)))))) (=> (and (and (and (>= ?G1_91 0) (>= ?H1_92 0)) (<= ?G1_91 ?v_32)) (<= ?H1_92 ?v_32)) (= (select (select ?v_49 ?G1_91) ?H1_92) (select (select ?v_49 ?H1_92) ?G1_91))))))))))))))) (forall ((?I1_93 Int) (?J1_94 Int)) (let ((?v_50 (- 6 1)) (?v_63 (trans h_ds1_filter))) (let ((?v_64 (tptp_mmul pminus_ds1_filter (tptp_mmul ?v_63 (inv (tptp_madd r_ds1_filter (tptp_mmul h_ds1_filter (tptp_mmul pminus_ds1_filter ?v_63)))))))) (let ((?v_65 (tptp_msub id_ds1_filter (tptp_mmul ?v_64 h_ds1_filter))) (?v_62 (select (select xhatmin_ds1_filter 5) 0)) (?v_61 (select (select u 2) pv5)) (?v_59 (select (select u 1) pv5)) (?v_58 (select (select xhatmin_ds1_filter 4) 0)) (?v_55 (select (select xhatmin_ds1_filter 3) 0)) (?v_54 (select (select u 0) pv5)) (?v_52 (divide 1.0 400.0))) (let ((?v_51 (store phi_ds1_filter 2 (store (select phi_ds1_filter 2) 1 (* (- ?v_55 ?v_54) ?v_52))))) (let ((?v_53 (store ?v_51 2 (store (select ?v_51 2) 0 (* (- ?v_59 ?v_58) ?v_52))))) (let ((?v_56 (store ?v_53 1 (store (select ?v_53 1) 2 (* (- ?v_54 ?v_55) ?v_52))))) (let ((?v_57 (store ?v_56 1 (store (select ?v_56 1) 0 (* (- ?v_62 ?v_61) ?v_52))))) (let ((?v_60 (store ?v_57 0 (store (select ?v_57 0) 2 (* (- ?v_58 ?v_59) ?v_52))))) (let ((?v_66 (store ?v_60 0 (store (select ?v_60 0) 1 (* (- ?v_61 ?v_62) ?v_52))))) (let ((?v_67 (tptp_madd q_ds1_filter (tptp_mmul ?v_66 (tptp_mmul (tptp_madd (tptp_mmul ?v_64 (tptp_mmul r_ds1_filter (trans ?v_64))) (tptp_mmul ?v_65 (tptp_mmul pminus_ds1_filter (trans ?v_65)))) (trans ?v_66)))))) (=> (and (and (and (>= ?I1_93 0) (>= ?J1_94 0)) (<= ?I1_93 ?v_50)) (<= ?J1_94 ?v_50)) (= (select (select ?v_67 ?I1_93) ?J1_94) (select (select ?v_67 ?J1_94) ?I1_93))))))))))))))) (forall ((?K1_95 Int)) (=> (and (>= ?K1_95 0) (<= ?K1_95 (- 6 1))) (forall ((?L1_96 Int)) (=> (and (>= ?L1_96 0) (<= ?L1_96 (- 6 1))) (= (select (select id_ds1_filter ?K1_95) ?L1_96) (select (select id_ds1_filter ?L1_96) ?K1_95)))))))) (=> ?v_2 (and (and (and (and (and ?v_1 (forall ((?M1_97 Int) (?N1_98 Int)) (let ((?v_68 (- 6 1))) (=> (and (and (and (>= ?M1_97 0) (>= ?N1_98 0)) (<= ?M1_97 ?v_68)) (<= ?N1_98 ?v_68)) (= (select (select q_ds1_filter ?M1_97) ?N1_98) (select (select q_ds1_filter ?N1_98) ?M1_97)))))) (forall ((?O1_99 Int) (?P1_100 Int)) (let ((?v_69 (- 3 1))) (=> (and (and (and (>= ?O1_99 0) (>= ?P1_100 0)) (<= ?O1_99 ?v_69)) (<= ?P1_100 ?v_69)) (= (select (select r_ds1_filter ?O1_99) ?P1_100) (select (select r_ds1_filter ?P1_100) ?O1_99)))))) (forall ((?Q1_101 Int) (?R1_102 Int)) (let ((?v_70 (- 6 1)) (?v_83 (trans h_ds1_filter))) (let ((?v_84 (tptp_mmul pminus_ds1_filter (tptp_mmul ?v_83 (inv (tptp_madd r_ds1_filter (tptp_mmul h_ds1_filter (tptp_mmul pminus_ds1_filter ?v_83)))))))) (let ((?v_85 (tptp_msub id_ds1_filter (tptp_mmul ?v_84 h_ds1_filter))) (?v_82 (select (select xhatmin_ds1_filter 5) 0)) (?v_81 (select (select u 2) pv5)) (?v_79 (select (select u 1) pv5)) (?v_78 (select (select xhatmin_ds1_filter 4) 0)) (?v_75 (select (select xhatmin_ds1_filter 3) 0)) (?v_74 (select (select u 0) pv5)) (?v_72 (divide 1.0 400.0))) (let ((?v_71 (store phi_ds1_filter 2 (store (select phi_ds1_filter 2) 1 (* (- ?v_75 ?v_74) ?v_72))))) (let ((?v_73 (store ?v_71 2 (store (select ?v_71 2) 0 (* (- ?v_79 ?v_78) ?v_72))))) (let ((?v_76 (store ?v_73 1 (store (select ?v_73 1) 2 (* (- ?v_74 ?v_75) ?v_72))))) (let ((?v_77 (store ?v_76 1 (store (select ?v_76 1) 0 (* (- ?v_82 ?v_81) ?v_72))))) (let ((?v_80 (store ?v_77 0 (store (select ?v_77 0) 2 (* (- ?v_78 ?v_79) ?v_72))))) (let ((?v_86 (store ?v_80 0 (store (select ?v_80 0) 1 (* (- ?v_81 ?v_82) ?v_72))))) (let ((?v_87 (tptp_madd q_ds1_filter (tptp_mmul ?v_86 (tptp_mmul (tptp_madd (tptp_mmul ?v_84 (tptp_mmul r_ds1_filter (trans ?v_84))) (tptp_mmul ?v_85 (tptp_mmul pminus_ds1_filter (trans ?v_85)))) (trans ?v_86)))))) (=> (and (and (and (>= ?Q1_101 0) (>= ?R1_102 0)) (<= ?Q1_101 ?v_70)) (<= ?R1_102 ?v_70)) (= (select (select ?v_87 ?Q1_101) ?R1_102) (select (select ?v_87 ?R1_102) ?Q1_101))))))))))))))) (forall ((?S1_103 Int) (?T1_104 Int)) (let ((?v_88 (- 6 1)) (?v_101 (trans h_ds1_filter))) (let ((?v_102 (tptp_mmul pminus_ds1_filter (tptp_mmul ?v_101 (inv (tptp_madd r_ds1_filter (tptp_mmul h_ds1_filter (tptp_mmul pminus_ds1_filter ?v_101)))))))) (let ((?v_103 (tptp_msub id_ds1_filter (tptp_mmul ?v_102 h_ds1_filter))) (?v_100 (select (select xhatmin_ds1_filter 5) 0)) (?v_99 (select (select u 2) pv5)) (?v_97 (select (select u 1) pv5)) (?v_96 (select (select xhatmin_ds1_filter 4) 0)) (?v_93 (select (select xhatmin_ds1_filter 3) 0)) (?v_92 (select (select u 0) pv5)) (?v_90 (divide 1.0 400.0))) (let ((?v_89 (store phi_ds1_filter 2 (store (select phi_ds1_filter 2) 1 (* (- ?v_93 ?v_92) ?v_90))))) (let ((?v_91 (store ?v_89 2 (store (select ?v_89 2) 0 (* (- ?v_97 ?v_96) ?v_90))))) (let ((?v_94 (store ?v_91 1 (store (select ?v_91 1) 2 (* (- ?v_92 ?v_93) ?v_90))))) (let ((?v_95 (store ?v_94 1 (store (select ?v_94 1) 0 (* (- ?v_100 ?v_99) ?v_90))))) (let ((?v_98 (store ?v_95 0 (store (select ?v_95 0) 2 (* (- ?v_96 ?v_97) ?v_90))))) (let ((?v_104 (store ?v_98 0 (store (select ?v_98 0) 1 (* (- ?v_99 ?v_100) ?v_90))))) (let ((?v_105 (tptp_madd q_ds1_filter (tptp_mmul ?v_104 (tptp_mmul (tptp_madd (tptp_mmul ?v_102 (tptp_mmul r_ds1_filter (trans ?v_102))) (tptp_mmul ?v_103 (tptp_mmul pminus_ds1_filter (trans ?v_103)))) (trans ?v_104)))))) (=> (and (and (and (>= ?S1_103 0) (>= ?T1_104 0)) (<= ?S1_103 ?v_88)) (<= ?T1_104 ?v_88)) (= (select (select ?v_105 ?S1_103) ?T1_104) (select (select ?v_105 ?T1_104) ?S1_103))))))))))))))) (forall ((?U1_105 Int)) (=> (and (>= ?U1_105 0) (<= ?U1_105 (- 6 1))) (forall ((?V1_106 Int)) (=> (and (>= ?V1_106 0) (<= ?V1_106 (- 6 1))) (= (select (select id_ds1_filter ?U1_105) ?V1_106) (select (select id_ds1_filter ?V1_106) ?U1_105))))))))))))))))
(check-sat)
(exit)
